words_hard_train/6056.qaiger
aag 139 24 0 1 115
2
4
8
10
14
24
28
38
40
58
60
64
68
72
88
90
108
128
198
200
220
238
240
264
278
6 2 4
12 8 10
16 12 14
18 6 17
20 3 4
22 20 13
26 24 10
30 27 29
32 31 14
34 22 32
36 19 35
42 39 40
44 16 4
46 42 44
48 43 45
50 47 49
52 36 51
54 37 50
56 53 55
62 59 61
66 62 65
70 66 69
74 71 72
76 70 73
78 75 77
80 56 78
82 38 40
84 82 45
86 85 55
92 89 90
94 44 40
96 92 94
98 93 95
100 97 99
102 86 101
104 87 100
106 103 105
110 77 108
112 76 109
114 111 113
116 106 114
118 81 117
120 25 10
122 121 61
124 120 9
126 123 125
130 129 58
132 63 9
134 131 133
136 120 60
138 134 137
140 126 139
142 27 13
144 29 14
146 143 145
148 142 144
150 147 149
152 151 65
154 140 153
156 150 64
158 157 67
160 155 158
162 33 17
164 163 21
166 162 20
168 165 167
170 67 68
172 171 71
174 169 172
176 161 175
178 168 173
180 177 179
182 57 79
184 180 183
186 118 185
188 107 115
190 187 189
192 88 90
194 192 95
196 195 105
202 198 200
204 203 200
206 94 90
208 204 206
210 205 207
212 209 211
214 196 213
216 197 212
218 215 217
222 113 220
224 112 221
226 223 225
228 219 227
230 190 229
232 218 226
234 231 233
236 235 224
242 239 240
244 206 200
246 243 244
248 242 245
250 247 249
252 202 207
254 253 217
256 251 255
258 250 254
260 257 259
262 237 260
266 262 265
268 261 264
270 234 269
272 271 237
274 269 224
276 273 275
278 267 277
i0 1 x1[3]
i1 2 y1[3]
i2 2 y1[0]
i3 2 y1[1]
i4 2 y1[2]
i5 1 x1[1]
i6 1 x1[2]
i7 1 x1[4]
i8 2 y1[4]
i9 2 y2[0]
i10 2 y2[1]
i11 2 y2[2]
i12 2 y2[3]
i13 2 y2[4]
i14 1 x1[5]
i15 2 y1[5]
i16 2 y2[5]
i17 1 x1[0]
i18 1 x1[6]
i19 2 y1[6]
i20 2 y2[6]
i21 1 x1[7]
i22 2 y1[7]
i23 2 y2[7]
o0 bv[0]
c
simplified
  <=
    2 y2
    subtract
      and
        2 y1
        1 x1
      invert
        2 y1
