words_hard_train/6056.qaiger.qdimacs
p cnf 139 346
a 64 1 99 12 44 14 19 119 0
e 2 3 4 5 6 7 8 9 10 11 13 15 16 17 18 20 21 22 23 24 25 26 27 28 29 30 31 32 33 34 35 36 37 38 39 40 41 42 43 45 46 47 48 49 50 51 52 53 54 55 56 57 58 59 60 61 62 63 65 66 67 68 69 70 71 72 73 74 75 76 77 78 79 80 81 82 83 84 85 86 87 88 89 90 91 92 93 94 95 96 97 98 100 101 102 103 104 105 106 107 108 109 110 111 112 113 114 115 116 117 118 120 121 122 123 124 125 126 127 128 129 130 131 132 133 134 135 136 137 138 139 0
-1 -2 3 0
1 -3 0
2 -3 0
-4 -5 6 0
4 -6 0
5 -6 0
-6 -7 8 0
6 -8 0
7 -8 0
-3 8 9 0
3 -9 0
-8 -9 0
1 -2 10 0
-1 -10 0
2 -10 0
-10 6 11 0
10 -11 0
-6 -11 0
-12 -5 13 0
12 -13 0
5 -13 0
13 14 15 0
-13 -15 0
-14 -15 0
15 -7 16 0
-15 -16 0
7 -16 0
-11 -16 17 0
11 -17 0
16 -17 0
9 17 18 0
-9 -18 0
-17 -18 0
19 -20 21 0
-19 -21 0
20 -21 0
-8 -2 22 0
8 -22 0
2 -22 0
-21 -22 23 0
21 -23 0
22 -23 0
21 22 24 0
-21 -24 0
-22 -24 0
23 24 25 0
-23 -25 0
-24 -25 0
-18 25 26 0
18 -26 0
-25 -26 0
18 -25 27 0
-18 -27 0
25 -27 0
26 27 28 0
-26 -28 0
-27 -28 0
29 30 31 0
-29 -31 0
-30 -31 0
-31 32 33 0
31 -33 0
-32 -33 0
-33 34 35 0
33 -35 0
-34 -35 0
35 -36 37 0
-35 -37 0
36 -37 0
-35 36 38 0
35 -38 0
-36 -38 0
37 38 39 0
-37 -39 0
-38 -39 0
-28 -39 40 0
28 -40 0
39 -40 0
-19 -20 41 0
19 -41 0
20 -41 0
-41 22 42 0
41 -42 0
-22 -42 0
42 27 43 0
-42 -43 0
-27 -43 0
44 -45 46 0
-44 -46 0
45 -46 0
-22 -20 47 0
22 -47 0
20 -47 0
-46 -47 48 0
46 -48 0
47 -48 0
46 47 49 0
-46 -49 0
-47 -49 0
48 49 50 0
-48 -50 0
-49 -50 0
-43 50 51 0
43 -51 0
-50 -51 0
43 -50 52 0
-43 -52 0
50 -52 0
51 52 53 0
-51 -53 0
-52 -53 0
38 -54 55 0
-38 -55 0
54 -55 0
-38 54 56 0
38 -56 0
-54 -56 0
55 56 57 0
-55 -57 0
-56 -57 0
-53 -57 58 0
53 -58 0
57 -58 0
40 58 59 0
-40 -59 0
-58 -59 0
12 -5 60 0
-12 -60 0
5 -60 0
60 30 61 0
-60 -61 0
-30 -61 0
-60 4 62 0
60 -62 0
-4 -62 0
61 62 63 0
-61 -63 0
-62 -63 0
64 -29 65 0
-64 -65 0
29 -65 0
31 4 66 0
-31 -66 0
-4 -66 0
65 66 67 0
-65 -67 0
-66 -67 0
-60 -30 68 0
60 -68 0
30 -68 0
-67 68 69 0
67 -69 0
-68 -69 0
-63 69 70 0
63 -70 0
-69 -70 0
13 6 71 0
-13 -71 0
-6 -71 0
14 -7 72 0
-14 -72 0
7 -72 0
71 72 73 0
-71 -73 0
-72 -73 0
-71 -72 74 0
71 -74 0
72 -74 0
73 74 75 0
-73 -75 0
-74 -75 0
75 32 76 0
-75 -76 0
-32 -76 0
-70 76 77 0
70 -77 0
-76 -77 0
-75 -32 78 0
75 -78 0
32 -78 0
78 33 79 0
-78 -79 0
-33 -79 0
77 -79 80 0
-77 -80 0
79 -80 0
16 8 81 0
-16 -81 0
-8 -81 0
81 10 82 0
-81 -82 0
-10 -82 0
-81 -10 83 0
81 -83 0
10 -83 0
82 83 84 0
-82 -84 0
-83 -84 0
33 -34 85 0
-33 -85 0
34 -85 0
85 35 86 0
-85 -86 0
-35 -86 0
84 -86 87 0
-84 -87 0
86 -87 0
80 87 88 0
-80 -88 0
-87 -88 0
-84 86 89 0
84 -89 0
-86 -89 0
88 89 90 0
-88 -90 0
-89 -90 0
28 39 91 0
-28 -91 0
-39 -91 0
-90 91 92 0
90 -92 0
-91 -92 0
-59 92 93 0
59 -93 0
-92 -93 0
53 57 94 0
-53 -94 0
-57 -94 0
93 94 95 0
-93 -95 0
-94 -95 0
-44 -45 96 0
44 -96 0
45 -96 0
-96 47 97 0
96 -97 0
-47 -97 0
97 52 98 0
-97 -98 0
-52 -98 0
-99 -100 101 0
99 -101 0
100 -101 0
101 -100 102 0
-101 -102 0
100 -102 0
-47 -45 103 0
47 -103 0
45 -103 0
-102 -103 104 0
102 -104 0
103 -104 0
102 103 105 0
-102 -105 0
-103 -105 0
104 105 106 0
-104 -106 0
-105 -106 0
-98 106 107 0
98 -107 0
-106 -107 0
98 -106 108 0
-98 -108 0
106 -108 0
107 108 109 0
-107 -109 0
-108 -109 0
56 -110 111 0
-56 -111 0
110 -111 0
-56 110 112 0
56 -112 0
-110 -112 0
111 112 113 0
-111 -113 0
-112 -113 0
109 113 114 0
-109 -114 0
-113 -114 0
-95 114 115 0
95 -115 0
-114 -115 0
-109 -113 116 0
109 -116 0
113 -116 0
115 116 117 0
-115 -117 0
-116 -117 0
117 -112 118 0
-117 -118 0
112 -118 0
119 -120 121 0
-119 -121 0
120 -121 0
-103 -100 122 0
103 -122 0
100 -122 0
121 -122 123 0
-121 -123 0
122 -123 0
-121 122 124 0
121 -124 0
-122 -124 0
123 124 125 0
-123 -125 0
-124 -125 0
-101 103 126 0
101 -126 0
-103 -126 0
126 108 127 0
-126 -127 0
-108 -127 0
125 127 128 0
-125 -128 0
-127 -128 0
-125 -127 129 0
125 -129 0
127 -129 0
128 129 130 0
-128 -130 0
-129 -130 0
118 -130 131 0
-118 -131 0
130 -131 0
-131 132 133 0
131 -133 0
-132 -133 0
130 -132 134 0
-130 -134 0
132 -134 0
-117 134 135 0
117 -135 0
-134 -135 0
135 118 136 0
-135 -136 0
-118 -136 0
134 -112 137 0
-134 -137 0
112 -137 0
136 137 138 0
-136 -138 0
-137 -138 0
133 138 139 0
-133 -139 0
-138 -139 0
139 0
